Vor 2018/AðgerðaGreining/AMPL/VinnuBekkurAMPL/Skil/daemi6.dat
# Gögn
# Mengi hluta
set electronics := TV Radio Camera CdPlayer VCR CamCoder;
# Gagnartafla hluta
param: 		 values weight volume available :=
	TV       50    35     8      20
	Radio	 15	   5	  1      50
	Camera   85    4      2      20
	CdPlayer 40	   3      1      30
	VCR      50    15     5      30
	CamCoder 120   20     4      15;
# Hámarks þyngd og rými
param maxWeight:= 500;
param maxVolume:= 300;