Vor 2018/AðgerðaGreining/AMPL/VinnuBekkurAMPL/Skil/daemi6.txt
ampl: model daemi6.run;
CPLEX 12.8.0.0: optimal solution; objective 4800
1 dual simplex iterations (0 in phase I)
totalProfit = 4800

demand [*] :=
CamCoder  15
  Camera  20
CdPlayer  30
   Radio   0
      TV   0
     VCR   2
;